solution status: optimal solution found
objective value:                                 8800
c$1                                                 1 	(obj:0)
c$2                                                 1 	(obj:0)
c$3                                                 1 	(obj:0)
c$4                                                 1 	(obj:0)
c$5                                                 1 	(obj:0)
c$6                                                 1 	(obj:0)
c$7                                                 1 	(obj:0)
c$8                                                 1 	(obj:0)
c$9                                                 1 	(obj:0)
c$10                                                1 	(obj:0)
x$1$3                                               1 	(obj:0)
x$2$10                                              1 	(obj:0)
x$3$8                                               1 	(obj:0)
x$4$10                                              1 	(obj:0)
x$5$2                                               1 	(obj:0)
x$6$9                                               1 	(obj:0)
x$7$3                                               1 	(obj:0)
x$8$9                                               1 	(obj:0)
x$9$8                                               1 	(obj:0)
x$10$5                                              1 	(obj:0)
x$11$5                                              1 	(obj:0)
x$12$10                                             1 	(obj:0)
x$13$10                                             1 	(obj:0)
x$14$4                                              1 	(obj:0)
x$15$3                                              1 	(obj:0)
x$16$2                                              1 	(obj:0)
x$17$10                                             1 	(obj:0)
x$18$5                                              1 	(obj:0)
x$19$9                                              1 	(obj:0)
x$20$7                                              1 	(obj:0)
x$21$4                                              1 	(obj:0)
x$22$1                                              1 	(obj:0)
x$23$3                                              1 	(obj:0)
x$24$5                                              1 	(obj:0)
x$25$6                                              1 	(obj:0)
x$26$7                                              1 	(obj:0)
x$27$1                                              1 	(obj:0)
x$28$1                                              1 	(obj:0)
x$29$4                                              1 	(obj:0)
x$30$3                                              1 	(obj:0)
x$31$7                                              1 	(obj:0)
x$32$6                                              1 	(obj:0)
x$33$4                                              1 	(obj:0)
x$34$8                                              1 	(obj:0)
x$35$6                                              1 	(obj:0)
x$36$9                                              1 	(obj:0)
x$37$5                                              1 	(obj:0)
x$38$9                                              1 	(obj:0)
x$39$1                                              1 	(obj:0)
x$40$8                                              1 	(obj:0)
x$41$7                                              1 	(obj:0)
x$42$1                                              1 	(obj:0)
x$43$4                                              1 	(obj:0)
x$44$6                                              1 	(obj:0)
x$45$2                                              1 	(obj:0)
x$46$2                                              1 	(obj:0)
x$47$10                                             1 	(obj:0)
x$48$6                                              1 	(obj:0)
x$49$3                                              1 	(obj:0)
x$50$8                                              1 	(obj:0)
x$51$10                                             1 	(obj:0)
x$52$7                                              1 	(obj:0)
x$53$2                                              1 	(obj:0)
x$54$8                                              1 	(obj:0)
x$55$2                                              1 	(obj:0)
x$56$9                                              1 	(obj:0)
h                                                8800 	(obj:1)
